122275.14
66 26 52 123 122 125 124 27 121 36 73 56 76 51 113 68 115 60 119 57 114 120 117 107 108 39 29 31 59 33 34 63 43 47 48 30 109 54 111 116 112 110 118 2 0 49 1 35 28 25 61 40 46 21 22 23 24 45 32 55 126 38 37 19 18 62 17 20 53 14 16 15 94 90 89 88 92 95 58 91 96 101 102 105 97 106 103 98 100 99 104 93 75 77 79 65 64 70 50 41 78 42 69 87 44 83 80 84 81 13 12 11 5 6 7 4 10 9 3 71 8 82 85 67 86 72 74